NAME : amtsp
TYPE : ATSP
DIMENSION : 11
EDGE_WEIGHT_TYPE : EXPLICIT
EDGE_WEIGHT_FORMAT : FULL_MATRIX
EDGE_WEIGHT_SECTION
0 201173 202129 202147 203125 203441 203989 203280 202585 201877 201205 
0 0 500 707 1118 1414 2520 2010 1118 1000 500 
0 500 0 500 707 1118 2010 1500 1000 1118 707 
0 707 500 0 500 707 1118 1000 500 707 500 
0 1118 707 500 0 500 1000 1118 707 1118 1000 
0 1414 1118 707 500 0 500 707 500 1000 1118 
0 2520 2010 1118 1000 500 0 500 707 1118 1414 
0 2010 1500 1000 1118 707 500 0 500 707 1118 
0 1118 1000 500 707 500 707 500 0 500 707 
0 1000 1118 707 1118 1000 1118 707 500 0 500 
0 500 707 500 1000 1118 1414 1118 707 500 0 
